93
87
95
104
104
105
106
106
116
128
120*
130
121
123
133
139
136
143
145
149
142
150*
157
148
141
154
159
161
165
158*
160*
164
163
169*
177
178
175
176
176
181
184
184
176
169
179
188
169
187
181*
190
188*
186*
185
181
176
182
195
187*
188
189
185
188*
191
200
194
203
203*
200*
196
215
211
220
214
227
253
266
259
280
284
266
287
277
277
289
290
293
292
296
302
283
297
301*
302
304
303
308
313*
305
319
310
322
317
303
326
302
328
332
316
335
314
337*
336*
335
320
340
340
341
345
346
345*
333
326
332
346*
328
352
348*
353
350
321
350*
332
351
363
325
359
327
344
365*
359
321
370
361
369*
355
345
341
369
372*
375
356
367
363
370
335
375
369
350
377
379
379
380
385
367
328
381*
388
382
349
389*
375
393
394
396
391
391
355
403
353
406
406
389
404
411
42
41
46
547
749
71
8
8
88
